NAME : RC205.6302.tour
COMMENT : Cost = 0_6302
COMMENT : Found by LKH [Keld Helsgaun] Wed Sep 13 18:34:40 2017
TYPE : TOUR
DIMENSION : 55
TOUR_SECTION
1
20
24
22
49
19
50
23
21
26
25
55
3
46
6
4
2
9
8
7
47
5
54
43
40
37
45
41
39
42
38
36
44
53
34
31
28
29
27
30
32
33
35
51
52
13
15
48
17
16
12
10
11
14
18
-1
EOF
